clingo version 4.5.4
Reading from ...lled/rudik_rules_all1000/keyPerson_all ...
Solving...
Answer: 1
assets("Yum!_Brands","8.075E9") equity("Yum!_Brands","9.69E8") netIncome("Yum!_Brands","1.293E9") operatingIncome("Yum!_Brands","1.921E9") revenue("Yum!_Brands","1.3105E10") foundingYear("Yum!_Brands","1997") numberOfEmployees("Yum!_Brands","505000") division("Yum!_Brands","India") industry("Yum!_Brands","Restaurant") keyPerson("Yum!_Brands","CEO") keyPerson("Yum!_Brands","CFO") keyPerson("Yum!_Brands","Greg_Creed") keyPerson("Yum!_Brands","Robert_D._Walter") locationCity("Yum!_Brands","Louisville,_Kentucky") subsidiary("Yum!_Brands","Pizza_Hut") subsidiary("Yum!_Brands","WingStreet") subsidiary("Yum!_Brands","KFC") subsidiary("Yum!_Brands","Taco_Bell") type("Yum!_Brands","Public_company") numberOfLocations("Pizza_Hut","13728") numberOfLocations("Taco_Bell","6407") revenue("Taco_Bell","1.988E9") birthPlace("Robert_D._Walter","Dublin,_Ohio") revenue("WingStreet","USD") foundingYear("WingStreet","2003") numberOfEmployees("Pizza_Hut","160000") numberOfEmployees("Taco_Bell","175000") capital("India","New_Delhi") country("Louisville,_Kentucky","United_States") foundationPlace("Pizza_Hut","Kansas") foundationPlace("Pizza_Hut","Wichita,_Kansas") foundationPlace("Taco_Bell","Downey,_California") industry("WingStreet","Fast_Food") industry("Pizza_Hut","Restaurant") industry("Taco_Bell","Fast_Food") isPartOf("Louisville,_Kentucky","Kentucky") isPartOf("Louisville,_Kentucky","Jefferson_County,_Kentucky") keyPerson("Taco_Bell","Glen_Bell") largestCity("India","Mumbai") location("WingStreet","Dallas,_Texas") location("Pizza_Hut","Plano,_Texas") location("Taco_Bell","Irvine,_California") nationality("Robert_D._Walter","United_States") parentCompany("WingStreet","Yum!_Brands") parentCompany("Pizza_Hut","Yum!_Brands") parentCompany("Pizza_Hut","PepsiCo") parentCompany("Taco_Bell","Yum!_Brands") product("WingStreet","Chicken") product("Pizza_Hut","Pizza") product("Pizza_Hut","Italian-American_cuisine") product("Taco_Bell","Taco") product("Taco_Bell","Tex-Mex_cuisine") product("Taco_Bell","Burrito") regionServed("Taco_Bell","Canada") regionServed("Taco_Bell","United_States") type("Louisville,_Kentucky","Consolidated_city-county") type("WingStreet","Subsidiary") type("Pizza_Hut","Subsidiary") type("Taco_Bell","Subsidiary") keyPerson("Pizza_Hut","Robert_D._Walter") keyPerson("Taco_Bell","Robert_D._Walter") keyPerson("WingStreet","Robert_D._Walter") keyPerson("Yum!_Brands","Glen_Bell") keyPerson("Pizza_Hut","Glen_Bell") keyPerson("WingStreet","Glen_Bell") keyPerson("KFC","Glen_Bell") keyPerson("KFC","Robert_D._Walter") keyPerson("Pizza_Hut","CEO") keyPerson("Pizza_Hut","CFO") keyPerson("Pizza_Hut","Greg_Creed") keyPerson("PepsiCo","Robert_D._Walter") keyPerson("PepsiCo","CEO") keyPerson("PepsiCo","CFO") keyPerson("PepsiCo","Greg_Creed") keyPerson("PepsiCo","Glen_Bell") keyPerson("Taco_Bell","CEO") keyPerson("WingStreet","CEO") keyPerson("Taco_Bell","CFO") keyPerson("WingStreet","CFO") keyPerson("Taco_Bell","Greg_Creed") keyPerson("WingStreet","Greg_Creed") keyPerson("KFC","CEO") keyPerson("KFC","CFO") keyPerson("KFC","Greg_Creed") not_keyPerson("Yum!_Brands","Robert_D._Walter") not_keyPerson("Public_company","Glen_Bell") not_keyPerson("Public_company","Robert_D._Walter") not_keyPerson("Public_company","CEO") not_keyPerson("Public_company","CFO") not_keyPerson("Public_company","Greg_Creed") not_keyPerson("Consolidated_city-county","CEO") not_keyPerson("Consolidated_city-county","CFO") not_keyPerson("Consolidated_city-county","Greg_Creed") not_keyPerson("Consolidated_city-county","Robert_D._Walter") not_keyPerson("Consolidated_city-county","Glen_Bell") not_keyPerson("Subsidiary","CEO") not_keyPerson("Subsidiary","CFO") not_keyPerson("Subsidiary","Greg_Creed") not_keyPerson("Subsidiary","Robert_D._Walter") not_keyPerson("Subsidiary","Glen_Bell") not_keyPerson("Yum!_Brands","CEO") not_keyPerson("Yum!_Brands","CFO") not_keyPerson("Yum!_Brands","Greg_Creed") not_keyPerson("Yum!_Brands","Glen_Bell") not_keyPerson("Taco_Bell","Glen_Bell") not_keyPerson("Taco_Bell","Robert_D._Walter") not_keyPerson("Taco_Bell","CEO") not_keyPerson("Taco_Bell","CFO") not_keyPerson("Taco_Bell","Greg_Creed") not_keyPerson("Pizza_Hut","CEO") not_keyPerson("Pizza_Hut","CFO") not_keyPerson("Pizza_Hut","Greg_Creed") not_keyPerson("Pizza_Hut","Robert_D._Walter") not_keyPerson("Pizza_Hut","Glen_Bell") not_keyPerson("WingStreet","CEO") not_keyPerson("WingStreet","CFO") not_keyPerson("WingStreet","Greg_Creed") not_keyPerson("WingStreet","Robert_D._Walter") not_keyPerson("WingStreet","Glen_Bell") not_keyPerson("KFC","Glen_Bell") not_keyPerson("KFC","Robert_D._Walter") not_keyPerson("KFC","CEO") not_keyPerson("KFC","CFO") not_keyPerson("KFC","Greg_Creed") not_keyPerson("PepsiCo","CEO") not_keyPerson("PepsiCo","CFO") not_keyPerson("PepsiCo","Greg_Creed") not_keyPerson("PepsiCo","Robert_D._Walter") not_keyPerson("PepsiCo","Glen_Bell") not_keyPerson("Chicken","CEO") not_keyPerson("Chicken","CFO") not_keyPerson("Chicken","Greg_Creed") not_keyPerson("Chicken","Robert_D._Walter") not_keyPerson("Chicken","Glen_Bell") not_keyPerson("Pizza","CEO") not_keyPerson("Pizza","CFO") not_keyPerson("Pizza","Greg_Creed") not_keyPerson("Pizza","Robert_D._Walter") not_keyPerson("Pizza","Glen_Bell") not_keyPerson("Italian-American_cuisine","CEO") not_keyPerson("Italian-American_cuisine","CFO") not_keyPerson("Italian-American_cuisine","Greg_Creed") not_keyPerson("Italian-American_cuisine","Robert_D._Walter") not_keyPerson("Italian-American_cuisine","Glen_Bell") not_keyPerson("Taco","CEO") not_keyPerson("Taco","CFO") not_keyPerson("Taco","Greg_Creed") not_keyPerson("Taco","Robert_D._Walter") not_keyPerson("Taco","Glen_Bell") not_keyPerson("Tex-Mex_cuisine","CEO") not_keyPerson("Tex-Mex_cuisine","CFO") not_keyPerson("Tex-Mex_cuisine","Greg_Creed") not_keyPerson("Tex-Mex_cuisine","Robert_D._Walter") not_keyPerson("Tex-Mex_cuisine","Glen_Bell") not_keyPerson("Burrito","CEO") not_keyPerson("Burrito","CFO") not_keyPerson("Burrito","Greg_Creed") not_keyPerson("Burrito","Robert_D._Walter") not_keyPerson("Burrito","Glen_Bell") not_keyPerson("Glen_Bell","CEO") not_keyPerson("Robert_D._Walter","CEO") not_keyPerson("CEO","CEO") not_keyPerson("CFO","CEO") not_keyPerson("Greg_Creed","CEO") not_keyPerson("Glen_Bell","CFO") not_keyPerson("Robert_D._Walter","CFO") not_keyPerson("CEO","CFO") not_keyPerson("CFO","CFO") not_keyPerson("Greg_Creed","CFO") not_keyPerson("Glen_Bell","Greg_Creed") not_keyPerson("Robert_D._Walter","Greg_Creed") not_keyPerson("CEO","Greg_Creed") not_keyPerson("CFO","Greg_Creed") not_keyPerson("Greg_Creed","Greg_Creed") not_keyPerson("Glen_Bell","Robert_D._Walter") not_keyPerson("Robert_D._Walter","Robert_D._Walter") not_keyPerson("CEO","Robert_D._Walter") not_keyPerson("CFO","Robert_D._Walter") not_keyPerson("Greg_Creed","Robert_D._Walter") not_keyPerson("CEO","Glen_Bell") not_keyPerson("CFO","Glen_Bell") not_keyPerson("Greg_Creed","Glen_Bell") not_keyPerson("Robert_D._Walter","Glen_Bell") not_keyPerson("Glen_Bell","Glen_Bell")
SATISFIABLE

Models       : 1     
Calls        : 1
Time         : 0.071s (Solving: 0.00s 1st Model: 0.00s Unsat: 0.00s)
CPU Time     : 0.060s
